###### Settings ######

units         real
atom_style    atomic
dimension     2
atom_modify   map yes
region        box block -1000 1000 -1000 1000 -0.1 0.1
create_box    1 box
variable      initialX equal 1.3
variable      initialY equal 0.0
create_atoms  1 single v_initialX v_initialY 0.0
pair_style    none
mass          1 40
velocity      all set -0.003415984556206905 -0.0008227515787991713 0 sum yes
fix           1 all nve
fix           2  all langevin 300 300 100.0 7878229

###### Forces ######

variable      x1 equal 2.5
variable      x2 equal -2.5
variable      sigmaSquared equal 1.3^2
variable      y1_2 equal 0.0
variable      lambda1Squared equal 4000000
variable      lambda2Squared equal 1.0
variable      A equal 24.44  # 41 kbT for LAMMPS real units and a temperature of 300 K
variable      exp1 atom v_A*exp(-((x-v_x1)^2)/(2*v_sigmaSquared)-((y-v_y1_2)^2)/(2*v_lambda1Squared))
variable      exp2 atom v_A*exp(-((x-v_x2)^2)/(2*v_sigmaSquared)-((y-v_y1_2)^2)/(2*v_lambda2Squared))

variable      fx atom -(x-v_x1)*v_exp1/v_sigmaSquared-(x-v_x2)*v_exp2/v_sigmaSquared-8*x
variable      fy atom -(y-v_y1_2)*v_exp1/v_lambda1Squared-(y-v_y1_2)*v_exp2/v_lambda2Squared-0.001*y
fix           forces all addforce v_fx v_fy 0.0
fix           3 all enforce2d

###### Running ######

read_data     resetTimesAndVelocities.data
variable      reactionCoordinate equal "x[1]" # The x coordinate of the particle
variable      passageCriterion equal -1.0

label         mainLoop
variable      a loop 20106 # Loop over total number of reset events

label         innerLoop
variable      b loop ${resetTimes}
run           100 # Run for 0.1ps and check whether a transition occurred
if            "(${reactionCoordinate} < ${passageCriterion})" then &
    "jump SELF break"
next          b
jump          SELF innerLoop

set atom 1 x ${initialX} y ${initialY} vx ${initialVx} vy ${initialVy} # Reset...
next a
next resetTimes
next Vxs
next Vys
jump SELF loop

label break
print "ALL DONE"
write_dump all xyz dumpFinalState.atom
