###### Settings ######

units         real
atom_style    atomic
dimension     2
atom_modify   map yes
region        box block -1000 1000 -1000 1000 -0.1 0.1
create_box    1 box
variable      initialX equal 3.0
create_atoms  1 single v_initialX 0.0 0.0
pair_style    none
mass          1 40
velocity      all set 0.006535599787097256 0 0 sum yes
fix           1 all nve
fix           2  all langevin 300 300 100.0 10000

###### Forces ######

variable      A equal 0.59616e-05
variable      B equal 0.59616 # 1 kbT for LAMMPS real units and a temperature of 300K
variable      C equal 1.0

variable      fx atom 2*x*(v_B*exp(-v_C*x^2)-v_A)
variable      fy atom -300*y # A strong harmonic spring to keep the particle around y=0
fix           forces all addforce v_fx v_fy 0.0
fix           3 all enforce2d

###### Running ######

read_data     resetTimesAndVelocities.data
variable      reactionCoordinate equal "x[1]" # The x coordinate of the particle
variable      passageCriterion equal -3.0

label         mainLoop
variable      a loop 4989 # Loop over total number of reset events

label         innerLoop
variable      b loop ${resetTimes}
run           100 # Run for 0.1ps and check whether a transition occurred
if            "(${reactionCoordinate} < ${passageCriterion})" then &
    "jump SELF break"
next          b
jump          SELF innerLoop

set atom 1 x ${initialX} vx ${initialVx} # Reset...
next a
next initialVx
next resetTimes
jump SELF mainLoop

label break
print "ALL DONE"
write_dump all xyz dumpFinalState.atom