###### Settings ######

units         real
atom_style    atomic
dimension     2
atom_modify   map yes
region        box block -1000 1000 -1000 1000 -0.1 0.1
create_box    1 box
variable      initialX equal -14.9
variable      initialY equal -1.4
create_atoms  1 single v_initialX v_initialY 0.0
pair_style    none
mass          1 40
velocity      all set -0.0011657808972590378 -0.001307608469145691 0 sum yes
fix           1 all nve
fix           2  all langevin 300 300 100.0 7878229

###### Forces ######

variable      A equal 0.89424  # 41 kbT for LAMMPS real units and a temperature
variable      fx atom (v_A/15)*(-4*(x/15)^3+4*(x/15)-y-1.5)
variable      fy atom v_A*(-4*y^3+8*y-(x/15)-1.2)
fix           forces all addforce v_fx v_fy 0.0
fix           3 all enforce2d

###### Running ######

read_data     resetTimesAndVelocities.data
variable      reactionCoordinate equal "x[1]" # The x coordinate of the particle
variable      passageCriterion equal 1.0

label         mainLoop
variable      a loop 20067 # Loop over total number of reset events

label         innerLoop
variable      b loop ${resetTimes}
run           100 # Run for 0.1ps and check whether a transition occurred
if            "(${reactionCoordinate} > ${passageCriterion})" then &
    "jump SELF break"
next          b
jump          SELF innerLoop

set atom 1 x ${initialX} y ${initialY} vx ${initialVx} vy ${initialVy} # Reset...
next a
next resetTimes
next Vxs
next Vys
jump SELF loop

label break
print "ALL DONE"
write_dump all xyz dumpFinalState.atom